24 1 17 1 12 1 05 1 24 1 17 1 12 1 05 1
20 1 15 1 08 1 03 1 20 1 15 1 08 1 03 1
17 1 12 1 05 1 00 1 24 1 17 1 12 1 05 1
08 3 10 1 12 3 15 1 13 3 12 1 10 3 12 1
08 3 08 1 13 3 12 1 10 3 08 1 07 3 12 1
08 3 08 1 17 3 16 1 13 3 12 1 10 3 15 1
13 3 12 1 10 3 08 1 07 3 10 1 08 3 07 1
24 1 17 1 12 1 05 1 24 1 17 1 12 1 05 1
20 1 15 1 08 1 03 1 20 1 15 1 08 1 03 1